<?xml version = "1.0" standalone="yes"?>
<!-- This file has been generated by DOcplex version 2.23.222  -->
<CPLEXSolution version="1.0">
 <header
   problemName="CVRP"
   objectiveValue="16627.4"
  />
 <variables>
  <variable name="x_0_1" index="0" value="1.00000"/>
  <variable name="x_0_2" index="1" value="1.00000"/>
  <variable name="x_0_4" index="3" value="1.00000"/>
  <variable name="x_0_6" index="5" value="1.00000"/>
  <variable name="x_0_7" index="6" value="1.00000"/>
  <variable name="x_0_11" index="10" value="1.00000"/>
  <variable name="x_0_12" index="11" value="1.00000"/>
  <variable name="x_0_13" index="12" value="1.00000"/>
  <variable name="x_0_14" index="13" value="1.00000"/>
  <variable name="x_0_15" index="14" value="1.00000"/>
  <variable name="x_0_16" index="15" value="1.00000"/>
  <variable name="x_0_18" index="17" value="1.00000"/>
  <variable name="x_0_21" index="20" value="1.00000"/>
  <variable name="x_0_23" index="22" value="1.00000"/>
  <variable name="x_0_25" index="24" value="1.00000"/>
  <variable name="x_0_28" index="27" value="1.00000"/>
  <variable name="x_0_29" index="28" value="1.00000"/>
  <variable name="x_1_22" index="51" value="1.00000"/>
  <variable name="x_2_3" index="62" value="1.00000"/>
  <variable name="x_3_0" index="90" value="1.00000"/>
  <variable name="x_4_0" index="120" value="1.00000"/>
  <variable name="x_5_0" index="150" value="1.00000"/>
  <variable name="x_6_24" index="203" value="1.00000"/>
  <variable name="x_7_8" index="217" value="1.00000"/>
  <variable name="x_8_5" index="245" value="1.00000"/>
  <variable name="x_9_19" index="288" value="1.00000"/>
  <variable name="x_10_20" index="319" value="1.00000"/>
  <variable name="x_11_17" index="346" value="1.00000"/>
  <variable name="x_12_0" index="360" value="1.00000"/>
  <variable name="x_13_0" index="390" value="1.00000"/>
  <variable name="x_14_0" index="420" value="1.00000"/>
  <variable name="x_15_0" index="450" value="1.00000"/>
  <variable name="x_16_9" index="489" value="1.00000"/>
  <variable name="x_17_0" index="510" value="1.00000"/>
  <variable name="x_18_0" index="540" value="1.00000"/>
  <variable name="x_19_0" index="570" value="1.00000"/>
  <variable name="x_20_0" index="600" value="1.00000"/>
  <variable name="x_21_10" index="640" value="1.00000"/>
  <variable name="x_22_0" index="660" value="1.00000"/>
  <variable name="x_23_0" index="690" value="1.00000"/>
  <variable name="x_24_0" index="720" value="1.00000"/>
  <variable name="x_25_27" index="776" value="1.00000"/>
  <variable name="x_26_0" index="780" value="1.00000"/>
  <variable name="x_27_26" index="836" value="1.00000"/>
  <variable name="x_28_0" index="840" value="1.00000"/>
  <variable name="x_29_30" index="899" value="1.00000"/>
  <variable name="x_30_0" index="900" value="1.00000"/>
  <variable name="u_1" index="930" value="57.00000"/>
  <variable name="u_2" index="931" value="14.00000"/>
  <variable name="u_3" index="932" value="78.00000"/>
  <variable name="u_4" index="933" value="79.00000"/>
  <variable name="u_5" index="934" value="71.00000"/>
  <variable name="u_6" index="935" value="71.00000"/>
  <variable name="u_7" index="936" value="29.00000"/>
  <variable name="u_8" index="937" value="55.00000"/>
  <variable name="u_9" index="938" value="68.00000"/>
  <variable name="u_10" index="939" value="43.00000"/>
  <variable name="u_11" index="940" value="51.00000"/>
  <variable name="u_12" index="941" value="48.00000"/>
  <variable name="u_13" index="942" value="79.00000"/>
  <variable name="u_14" index="943" value="79.00000"/>
  <variable name="u_15" index="944" value="67.00000"/>
  <variable name="u_16" index="945" value="39.00000"/>
  <variable name="u_17" index="946" value="75.00000"/>
  <variable name="u_18" index="947" value="79.00000"/>
  <variable name="u_19" index="948" value="79.00000"/>
  <variable name="u_20" index="949" value="79.00000"/>
  <variable name="u_21" index="950" value="36.00000"/>
  <variable name="u_22" index="951" value="79.00000"/>
  <variable name="u_23" index="952" value="66.00000"/>
  <variable name="u_24" index="953" value="72.00000"/>
  <variable name="u_25" index="954" value="1.00000"/>
  <variable name="u_26" index="955" value="71.00000"/>
  <variable name="u_27" index="956" value="18.00000"/>
  <variable name="u_28" index="957" value="45.00000"/>
  <variable name="u_29" index="958" value="76.00000"/>
  <variable name="u_30" index="959" value="79.00000"/>
 </variables>
</CPLEXSolution>
